This is Ipopt version 3.10.0, running with linear solver ma27.

Number of nonzeros in equality constraint Jacobian...:        0
Number of nonzeros in inequality constraint Jacobian.:       48
Number of nonzeros in Lagrangian Hessian.............:        0

Total number of variables............................:        6
                     variables with only lower bounds:        3
                variables with lower and upper bounds:        3
                     variables with only upper bounds:        0
Total number of equality constraints.................:        0
Total number of inequality constraints...............:        8
        inequality constraints with only lower bounds:        0
   inequality constraints with lower and upper bounds:        0
        inequality constraints with only upper bounds:        8

iter    objective    inf_pr   inf_du lg(mu)  ||d||  lg(rg) alpha_du alpha_pr  ls
   0  3.7446433e+00 5.24e+00 1.27e+00   0.0 0.00e+00    -  0.00e+00 0.00e+00   0
   1  4.8598546e+00 1.89e+00 2.54e+00  -0.4 2.70e+00    -  7.16e-01 8.77e-01f  1
   2  5.2693321e+00 1.27e+00 2.56e+00  -0.7 1.13e+00    -  5.94e-01 5.60e-01h  1
   3  5.8547390e+00 8.87e-01 1.74e+00  -0.7 1.20e+00    -  8.00e-01 3.50e-01h  1
   4  6.5163663e+00 5.85e-01 1.85e+01  -1.1 1.85e+00    -  7.77e-01 6.88e-01H  1
   5  9.8954995e+00 1.96e-02 4.94e+00  -0.5 1.48e+00    -  4.43e-01 1.00e+00f  1
   6  8.6778808e+00 1.51e-02 1.50e+01  -0.8 4.18e-01    -  1.00e+00 1.00e+00f  1
   7  7.9243197e+00 3.92e-01 1.84e+01  -1.5 5.05e-01    -  1.00e+00 5.88e-01f  1
   8  8.7476905e+00 6.85e-02 2.34e+00  -0.7 8.63e-01    -  1.00e+00 4.35e-01h  1
   9  8.4392486e+00 9.47e-02 8.83e+00  -0.9 1.23e-01    -  9.76e-01 1.00e+00f  1
iter    objective    inf_pr   inf_du lg(mu)  ||d||  lg(rg) alpha_du alpha_pr  ls
  10  9.4390766e+00 1.57e-02 2.26e+01  -1.5 3.21e-01    -  8.60e-01 1.00e+00H  1
  11  9.7878306e+00 1.93e-02 4.37e+01  -2.0 9.28e-02    -  1.00e+00 6.01e-01H  1
  12  1.0380540e+01 7.64e-03 6.50e+01  -3.5 1.48e-01    -  7.41e-01 9.74e-01H  1
  13  1.0316548e+01 1.13e-02 4.62e+01  -3.2 1.48e-01    -  1.00e+00 8.26e-01h  1
  14  1.0326340e+01 3.78e-03 5.12e+01  -3.3 5.07e-02    -  2.15e-01 1.00e+00h  1
  15  1.0319261e+01 1.55e-03 4.45e+01  -3.6 2.86e-02    -  1.00e+00 1.00e+00h  1
  16  1.0138493e+01 8.12e-03 4.75e+01  -3.1 1.27e-01    -  1.00e+00 1.00e+00f  1
  17  1.0155369e+01 2.26e-03 3.02e+01  -3.7 3.78e-02    -  1.00e+00 9.92e-01h  1
  18  1.0052914e+01 4.73e-03 1.71e+01  -4.3 1.52e-01    -  1.00e+00 4.83e-01f  1
  19  1.0093773e+01 0.00e+00 4.24e-01  -3.2 3.36e-02    -  1.00e+00 1.00e+00h  1
iter    objective    inf_pr   inf_du lg(mu)  ||d||  lg(rg) alpha_du alpha_pr  ls
  20  1.0081550e+01 1.59e-03 2.70e-01  -4.4 1.49e-02    -  1.00e+00 1.00e+00h  1
  21  1.0102806e+01 3.14e-04 3.76e-01  -5.7 1.55e-02    -  1.00e+00 1.00e+00h  1
  22  1.0099558e+01 1.79e-04 2.37e-01  -7.4 1.69e-03    -  1.00e+00 1.00e+00H  1

Number of Iterations....: 22

                                   (scaled)                 (unscaled)
Objective...............:   1.0099557602812109e+01    1.0099557602812109e+01
Dual infeasibility......:   2.3690456193437195e-01    2.3690456193437195e-01
Constraint violation....:   1.7908804499888216e-04    1.7908804499888216e-04
Complementarity.........:   1.1524994032511558e-07    1.1524994032511558e-07
Overall NLP error.......:   2.3690456193437195e-01    2.3690456193437195e-01


Number of objective function evaluations             = 28
Number of objective gradient evaluations             = 23
Number of equality constraint evaluations            = 0
Number of inequality constraint evaluations          = 28
Number of equality constraint Jacobian evaluations   = 0
Number of inequality constraint Jacobian evaluations = 23
Number of Lagrangian Hessian evaluations             = 0
Total CPU secs in IPOPT (w/o function evaluations)   =      0.079
Total CPU secs in NLP function evaluations           =    262.029

EXIT: Stopping optimization at current point as requested by user.
